NAME          BLANK   
ROWS
 N  OBJROW
 G  R0000000
 L  R0000001
 G  R0000002
 L  R0000003
 G  R0000004
 L  R0000005
 G  R0000006
 L  R0000007
 G  R0000008
 L  R0000009
 G  R0000010
 L  R0000011
COLUMNS
    C0000000  R0000000   -1.           R0000001   -1.        
    C0000000  R0000004   -1.           R0000005   -1.        
    C0000001  R0000002   -1.           R0000003   -1.        
    C0000001  R0000006   -1.           R0000007   -1.        
    C0000002  R0000000  1.             R0000001  1.          
    C0000002  R0000008   -1.           R0000009   -1.        
    C0000003  R0000002  1.             R0000003  1.          
    C0000003  R0000010   -1.           R0000011   -1.        
    C0000004  R0000004  1.             R0000005  1.          
    C0000004  R0000008  1.             R0000009  1.          
    C0000005  R0000006  1.             R0000007  1.          
    C0000005  R0000010  1.             R0000011  1.          
    C0000006  R0000000  800.           R0000001   -800.      
    C0000007  R0000002  800.           R0000003   -800.      
    C0000007  R0000004  800.           R0000005   -800.      
    C0000007  R0000008  800.           R0000009   -800.      
    C0000008  R0000006  800.           R0000007   -800.      
    C0000008  R0000010  800.           R0000011   -800.      
RHS
    RHS       R0000000  311.           R0000001  488.        
    RHS       R0000002  58.            R0000003  742.        
    RHS       R0000004  302.           R0000005  488.        
    RHS       R0000006  55.            R0000007  742.        
    RHS       R0000008  302.           R0000009  489.        
    RHS       R0000010  55.            R0000011  742.        
BOUNDS
 UP BOUND     C0000000  488.        
 UP BOUND     C0000001  542.        
 UP BOUND     C0000002  489.        
 UP BOUND     C0000003  542.        
 UP BOUND     C0000004  498.        
 LO BOUND     C0000005  355.66963011
 UP BOUND     C0000005  545.        
 UP BOUND     C0000006  1.          
 UP BOUND     C0000007  1.          
 UP BOUND     C0000008  1.          
ENDATA
